WARNING: for repeatability, setting FPU to use double precision
============================[ Problem Statistics ]=============================
|                                                                             |
|  Number of variables:            50                                         |
|  Number of clauses:             218                                         |
|  Parse time:                   0.00 s                                       |
|                                                                             |
============================[ Search Statistics ]==============================
| Conflicts |          ORIGINAL         |          LEARNT          | Progress |
|           |    Vars  Clauses Literals |    Limit  Clauses Lit/Cl |          |
===============================================================================
===============================================================================
restarts              : 1
conflicts             : 46             (31702 /sec)
decisions             : 58             (0.00 % random) (39972 /sec)
propagations          : 716            (493453 /sec)
conflict literals     : 178            (17.97 % deleted)
Memory used           : 20.00 MB
CPU time              : 0.001451 s

SATISFIABLE
